r2_10_1

VEHICLE
NUMBER   CAPACITY
250     1000

CUSTOMER
CUST NO. XCOORD.  YCOORD.  DEMAND  READY TIME DUE DATE  SERVICE TIME

0   250    250     0     0    7697     0
148 459 53 20 4505 4592 10
319 429 59 9 1827 1964 10
676 492 34 5 3242 3362 10
500 451 62 5 1139 1240 10
416 432 66 30 4270 4419 10
344 441 60 21 5835 5954 10
630 450 45 24 2005 2144 10
488 476 61 36 1780 1930 10
636 497 18 10 4520 4641 10
659 497 54 14 3918 4027 10
63 436 25 19 5113 5266 10
776 442 5 16 1262 1421 10
217 426 38 23 2439 2551 10
783 438 5 18 2201 2311 10
274 488 3 3 1625 1700 10
661 437 19 15 4047 4185 10
357 432 2 20 1848 2004 10
620 472 57 17 5178 5301 10
538 441 7 20 1563 1690 10
